NAME : cgl_70b.5454.tour
COMMENT : Length = 5454
COMMENT : Found by LKH-3 [Keld Helsgaun] Thu Jun 26 21:26:49 2025
TYPE : TOUR
DIMENSION : 71
TOUR_SECTION
42
41
35
36
40
43
44
37
45
5
62
3
63
2
1
65
66
64
67
69
70
68
71
60
61
59
58
56
55
57
4
54
15
21
22
23
53
8
9
50
7
49
27
29
28
39
47
51
46
38
17
20
26
16
6
19
18
52
30
10
25
11
14
13
48
31
24
12
32
34
33
-1
EOF
